NAME : XML100_1175_27
DIMENSION : 101
NB_CLUSTERS : 7
CLUSTERING_ALG : KMedoids
CLUSTERING_PARAMS : k(6)
CLUSTERS
1 0
2 2 3 6 27 28 43 44 47 52 59 84 95 97
3 5 11 20 25 32 36 37 46 49 50 60 71 87 93 100
4 21 22 23 48 54 66 68 78 90 92
5 14 17 19 33 53 57 63 69 73 80 81 82 88 91 94 99
6 1 4 13 16 24 26 29 30 34 35 39 41 45 51 55 58 61 62 64 65 70 72 75 76 77 79 85 86 89 98
7 7 8 9 10 12 15 18 31 38 40 42 56 67 74 83 96
EOF